(set-info :smt-lib-version 2.6)
(set-logic UF)
(set-info :source |
Generated by: Andrew Reynolds
Generated on: 2017-04-28
Generator: Sledgehammer, converted to v2.6 by CVC4
Application: Verfication goals in Isabelle
Target solver: CVC4, Z3
Publications: "A Decision Procedure for (Co)Datatypes" by Andrew Reynolds and Jasmin Blanchette, CADE 2015.
|)
(set-info :license "https://creativecommons.org/licenses/by/4.0/")
(set-info :category "industrial")
(set-info :status unknown)


(declare-sort A$ 0)
(declare-sort Nat$ 0)
(declare-sort A_set$ 0)
(declare-sort A_nat_fun$ 0)
(declare-sort A_bool_fun$ 0)
(declare-sort Nat_nat_fun$ 0)
(declare-sort A_a_tree_fun$ 0)
(declare-sort Nat_bool_fun$ 0)
(declare-sort Nat_nat_bool_fun_fun$ 0)
(declare-sort A_tree$ 0)
(declare-sort Natural$ 0)
(declare-sort Nibble$ 0)
(declare-sort Char$ 0)
(declare-fun select$ (A_tree$) Nat$)
(declare-fun selecta$ (A_tree$) A$)
(declare-fun leaf$ (Nat$ A$) A_tree$)
(declare-fun selectb$ (A_tree$) Nat$)
(declare-fun selectc$ (A_tree$) A_tree$)
(declare-fun selectd$ (A_tree$) A_tree$)
(declare-fun innerNode$ (Nat$ A_tree$ A_tree$) A_tree$)
(declare-fun nat_of_natural$ (Natural$) Nat$)
(declare-fun natural_of_nat$ (Nat$) Natural$)
(declare-fun nibble0$ () Nibble$)
(declare-fun nibble1$ () Nibble$)
(declare-fun nibble2$ () Nibble$)
(declare-fun nibble3$ () Nibble$)
(declare-fun nibble4$ () Nibble$)
(declare-fun nibble5$ () Nibble$)
(declare-fun nibble6$ () Nibble$)
(declare-fun nibble7$ () Nibble$)
(declare-fun nibble8$ () Nibble$)
(declare-fun nibble9$ () Nibble$)
(declare-fun nibbleA$ () Nibble$)
(declare-fun nibbleB$ () Nibble$)
(declare-fun nibbleC$ () Nibble$)
(declare-fun nibbleD$ () Nibble$)
(declare-fun nibbleE$ () Nibble$)
(declare-fun nibbleF$ () Nibble$)
(declare-fun selecte$ (Char$) Nibble$)
(declare-fun selectf$ (Char$) Nibble$)
(declare-fun char$ (Nibble$ Nibble$) Char$)
(declare-fun a$ () A$)
(declare-fun b$ () A$)
(declare-fun c$ () A$)
(declare-fun t$ () A_tree$)
(declare-fun uu$ (A_set$) A_bool_fun$)
(declare-fun suc$ (Nat$) Nat$)
(declare-fun w_a$ () Nat$)
(declare-fun w_b$ () Nat$)
(declare-fun cost$ (A_tree$) Nat$)
(declare-fun freq$ (A_tree$) A_nat_fun$)
(declare-fun less$ (Nat$) Nat_bool_fun$)
(declare-fun size$ (A_tree$) Nat$)
(declare-fun zero$ () Nat$)
(declare-fun depth$ (A_tree$ A$) Nat$)
(declare-fun size$a (Char$) Nat$)
(declare-fun size$b (Natural$) Nat$)
(declare-fun zero$a () Natural$)
(declare-fun height$ (A_tree$) Nat$)
(declare-fun member$ (A$ A_set$) Bool)
(declare-fun of_nat$ (Nat$) Nat$)
(declare-fun collect$ (A_bool_fun$) A_set$)
(declare-fun fun_app$ (A_bool_fun$ A$) Bool)
(declare-fun less_eq$ (Nat$) Nat_bool_fun$)
(declare-fun of_nat$a (Nat$) Natural$)
(declare-fun optimum$ (A_tree$) Bool)
(declare-fun sibling$ (A_tree$ A$) A$)
(declare-fun alphabet$ (A_tree$) A_set$)
(declare-fun fun_app$a (A_nat_fun$ A$) Nat$)
(declare-fun fun_app$b (A_a_tree_fun$ A$) A_tree$)
(declare-fun fun_app$c (Nat_bool_fun$ Nat$) Bool)
(declare-fun fun_app$d (Nat_nat_bool_fun_fun$ Nat$) Nat_bool_fun$)
(declare-fun fun_app$e (Nat_nat_fun$ Nat$) Nat$)
(declare-fun pred_tree$ (A_bool_fun$ A_tree$) Bool)
(declare-fun size_char$ (Char$) Nat$)
(declare-fun consistent$ (A_tree$) Bool)
(declare-fun swapLeaves$ (A_tree$ Nat$ A$ Nat$) A_a_tree_fun$)
(declare-fun size_natural$ (Natural$) Nat$)
(assert (forall ((?v0 A_set$) (?v1 A$)) (! (= (fun_app$ (uu$ ?v0) ?v1) (member$ ?v1 ?v0)) :pattern ((fun_app$ (uu$ ?v0) ?v1)))))
(assert (not (= (fun_app$a (freq$ (fun_app$b (swapLeaves$ t$ w_a$ a$ w_b$) b$)) c$) (ite (= c$ a$) (ite (member$ b$ (alphabet$ t$)) w_a$ zero$) (ite (= c$ b$) (ite (member$ a$ (alphabet$ t$)) w_b$ zero$) (fun_app$a (freq$ t$) c$))))))
(assert (consistent$ t$))
(assert (not (= a$ b$)))
(assert (forall ((?v0 A$) (?v1 A_tree$) (?v2 Nat$) (?v3 Nat$)) (! (=> (not (member$ ?v0 (alphabet$ ?v1))) (= (fun_app$b (swapLeaves$ ?v1 ?v2 ?v0 ?v3) ?v0) ?v1)) :pattern ((swapLeaves$ ?v1 ?v2 ?v0 ?v3)))))
(assert (forall ((?v0 A$) (?v1 A_tree$)) (! (=> (not (member$ ?v0 (alphabet$ ?v1))) (= (fun_app$a (freq$ ?v1) ?v0) zero$)) :pattern ((fun_app$a (freq$ ?v1) ?v0)))))
(assert (forall ((?v0 A_tree$) (?v1 A$)) (=> (consistent$ ?v0) (= (fun_app$b (swapLeaves$ ?v0 (fun_app$a (freq$ ?v0) ?v1) ?v1 (fun_app$a (freq$ ?v0) ?v1)) ?v1) ?v0)) ))
(assert (forall ((?v0 A_tree$) (?v1 Nat$) (?v2 A$) (?v3 Nat$) (?v4 A$)) (=> (consistent$ ?v0) (consistent$ (fun_app$b (swapLeaves$ ?v0 ?v1 ?v2 ?v3) ?v4))) ))
(assert (forall ((?v0 A_tree$)) (exists ((?v1 A$)) (member$ ?v1 (alphabet$ ?v0)) ) ))
(assert (forall ((?v0 A_tree$) (?v1 A$) (?v2 A$) (?v3 A$) (?v4 Nat$) (?v5 Nat$)) (=> (and (consistent$ ?v0) (and (not (= ?v1 ?v2)) (not (= ?v1 ?v3)))) (= (depth$ (fun_app$b (swapLeaves$ ?v0 ?v4 ?v2 ?v5) ?v3) ?v1) (depth$ ?v0 ?v1))) ))
(assert (= zero$ zero$))
(assert (forall ((?v0 Nat$)) (=> (and (=> (= ?v0 zero$) false) (=> (not (= ?v0 zero$)) false)) false) ))
(assert (forall ((?v0 Nat$)) (= (= zero$ ?v0) (= ?v0 zero$)) ))
(assert (forall ((?v0 Natural$)) (= (= zero$a ?v0) (= ?v0 zero$a)) ))
(assert (forall ((?v0 Nat$) (?v1 A$) (?v2 A$)) (! (= (fun_app$a (freq$ (leaf$ ?v0 ?v1)) ?v2) (ite (= ?v2 ?v1) ?v0 zero$)) :pattern ((fun_app$a (freq$ (leaf$ ?v0 ?v1)) ?v2)))))
(assert (forall ((?v0 Char$)) (! (= (size_char$ ?v0) zero$) :pattern ((size_char$ ?v0)))))
(assert (forall ((?v0 A_tree$)) (not (= (size$ ?v0) zero$)) ))
(assert (forall ((?v0 A_tree$) (?v1 Nat$) (?v2 A$) (?v3 Nat$) (?v4 A$)) (= (height$ (fun_app$b (swapLeaves$ ?v0 ?v1 ?v2 ?v3) ?v4)) (height$ ?v0)) ))
(assert (forall ((?v0 A_tree$) (?v1 A$)) (=> (consistent$ ?v0) (= (sibling$ ?v0 (sibling$ ?v0 ?v1)) ?v1)) ))
(assert (forall ((?v0 A_tree$)) (= (optimum$ ?v0) (forall ((?v1 A_tree$)) (=> (and (consistent$ ?v1) (and (= (alphabet$ ?v0) (alphabet$ ?v1)) (= (freq$ ?v0) (freq$ ?v1)))) (fun_app$c (less_eq$ (cost$ ?v0)) (cost$ ?v1))) )) ))
(assert (forall ((?v0 A$) (?v1 A_tree$)) (! (=> (not (member$ ?v0 (alphabet$ ?v1))) (= (sibling$ ?v1 ?v0) ?v0)) :pattern ((sibling$ ?v1 ?v0)))))
(assert (forall ((?v0 Nat$) (?v1 A$) (?v2 Nat$) (?v3 A$)) (= (= (leaf$ ?v0 ?v1) (leaf$ ?v2 ?v3)) (and (= ?v0 ?v2) (= ?v1 ?v3))) ))
(assert (forall ((?v0 Nat$)) (fun_app$c (less_eq$ zero$) ?v0) ))
(assert (forall ((?v0 Nat$)) (! (= (fun_app$c (less_eq$ ?v0) zero$) (= ?v0 zero$)) :pattern ((less_eq$ ?v0)))))
(assert (forall ((?v0 A_tree$) (?v1 A$)) (! (=> (= (height$ ?v0) zero$) (= (sibling$ ?v0 ?v1) ?v1)) :pattern ((sibling$ ?v0 ?v1)))))
(assert (forall ((?v0 A_tree$)) (! (=> (= (height$ ?v0) zero$) (= (cost$ ?v0) zero$)) :pattern ((cost$ ?v0)))))
(assert (forall ((?v0 A_tree$) (?v1 A$)) (=> (consistent$ ?v0) (= (depth$ ?v0 (sibling$ ?v0 ?v1)) (depth$ ?v0 ?v1))) ))
(assert (forall ((?v0 Nat$) (?v1 A$) (?v2 A$)) (! (= (sibling$ (leaf$ ?v0 ?v1) ?v2) ?v2) :pattern ((sibling$ (leaf$ ?v0 ?v1) ?v2)))))
(assert (forall ((?v0 Nat$) (?v1 Nat$)) (=> (= ?v0 ?v1) (fun_app$c (less_eq$ ?v0) ?v1)) ))
(assert (forall ((?v0 Nat$) (?v1 Nat$)) (=> (and (fun_app$c (less_eq$ ?v0) ?v1) (fun_app$c (less_eq$ ?v1) ?v0)) (= ?v0 ?v1)) ))
(assert (forall ((?v0 Nat$) (?v1 Nat$) (?v2 Nat$)) (=> (and (fun_app$c (less_eq$ ?v0) ?v1) (fun_app$c (less_eq$ ?v1) ?v2)) (fun_app$c (less_eq$ ?v0) ?v2)) ))
(assert (forall ((?v0 Nat$) (?v1 Nat$)) (or (fun_app$c (less_eq$ ?v0) ?v1) (fun_app$c (less_eq$ ?v1) ?v0)) ))
(assert (forall ((?v0 A_tree$) (?v1 A$)) (fun_app$c (less_eq$ (depth$ ?v0 ?v1)) (height$ ?v0)) ))
(assert (forall ((?v0 Nat$)) (fun_app$c (less_eq$ ?v0) ?v0) ))
(assert (forall ((?v0 Nat$) (?v1 A$)) (! (= (height$ (leaf$ ?v0 ?v1)) zero$) :pattern ((leaf$ ?v0 ?v1)))))
(assert (forall ((?v0 Nat$)) (! (= (fun_app$c (less_eq$ zero$) ?v0) true) :pattern ((fun_app$c (less_eq$ zero$) ?v0)))))
(assert (forall ((?v0 Nat$) (?v1 A$) (?v2 A$)) (! (= (depth$ (leaf$ ?v0 ?v1) ?v2) zero$) :pattern ((depth$ (leaf$ ?v0 ?v1) ?v2)))))
(assert (forall ((?v0 Nat$) (?v1 A$)) (! (= (cost$ (leaf$ ?v0 ?v1)) zero$) :pattern ((leaf$ ?v0 ?v1)))))
(assert (forall ((?v0 Nat$) (?v1 A$)) (! (= (consistent$ (leaf$ ?v0 ?v1)) true) :pattern ((leaf$ ?v0 ?v1)))))
(assert (forall ((?v0 A_tree$)) (=> (consistent$ ?v0) (exists ((?v1 A$)) (and (member$ ?v1 (alphabet$ ?v0)) (= (depth$ ?v0 ?v1) (height$ ?v0))) )) ))
(assert (forall ((?v0 A_tree$) (?v1 A$)) (=> (not (= (sibling$ ?v0 ?v1) ?v1)) (member$ (sibling$ ?v0 ?v1) (alphabet$ ?v0))) ))
(assert (forall ((?v0 A$) (?v1 A_tree$)) (=> (member$ ?v0 (alphabet$ ?v1)) (member$ (sibling$ ?v1 ?v0) (alphabet$ ?v1))) ))
(assert (forall ((?v0 Nat$) (?v1 A$) (?v2 Nat$) (?v3 A$) (?v4 Nat$) (?v5 A$)) (! (= (fun_app$b (swapLeaves$ (leaf$ ?v0 ?v1) ?v2 ?v3 ?v4) ?v5) (ite (= ?v1 ?v3) (leaf$ ?v4 ?v5) (ite (= ?v1 ?v5) (leaf$ ?v2 ?v3) (leaf$ ?v0 ?v1)))) :pattern ((fun_app$b (swapLeaves$ (leaf$ ?v0 ?v1) ?v2 ?v3 ?v4) ?v5)))))
(assert (forall ((?v0 A_tree$) (?v1 A$) (?v2 A$)) (=> (and (consistent$ ?v0) (= (sibling$ ?v0 ?v1) ?v2)) (= (sibling$ ?v0 ?v2) ?v1)) ))
(assert (forall ((?v0 Nat$)) (fun_app$c (less_eq$ ?v0) ?v0) ))
(assert (forall ((?v0 A_tree$) (?v1 A$)) (=> (and (consistent$ ?v0) (and (= (depth$ ?v0 ?v1) (height$ ?v0)) (and (fun_app$c (less$ zero$) (height$ ?v0)) (member$ ?v1 (alphabet$ ?v0))))) (not (= (sibling$ ?v0 ?v1) ?v1))) ))
(assert (fun_app$c (less_eq$ zero$) zero$))
(assert (= (size_natural$ zero$a) zero$))
(assert (forall ((?v0 Char$)) (! (= (size$a ?v0) zero$) :pattern ((size$a ?v0)))))
(assert (forall ((?v0 A_bool_fun$) (?v1 A_bool_fun$)) (=> (forall ((?v2 A$)) (= (fun_app$ ?v0 ?v2) (fun_app$ ?v1 ?v2)) ) (= (collect$ ?v0) (collect$ ?v1))) ))
(assert (forall ((?v0 A_set$)) (= (collect$ (uu$ ?v0)) ?v0) ))
(assert (forall ((?v0 A$) (?v1 A_bool_fun$)) (= (member$ ?v0 (collect$ ?v1)) (fun_app$ ?v1 ?v0)) ))
(assert (forall ((?v0 A_tree$) (?v1 A_tree$)) (=> (and (fun_app$c (less$ zero$) (height$ ?v0)) (and (consistent$ ?v0) (= (alphabet$ ?v0) (alphabet$ ?v1)))) (fun_app$c (less$ zero$) (height$ ?v1))) ))
(assert (forall ((?v0 Nat$) (?v1 A$)) (! (= (size$ (leaf$ ?v0 ?v1)) (suc$ zero$)) :pattern ((leaf$ ?v0 ?v1)))))
(assert (forall ((?v0 A_bool_fun$) (?v1 Nat$) (?v2 A$)) (! (= (pred_tree$ ?v0 (leaf$ ?v1 ?v2)) (fun_app$ ?v0 ?v2)) :pattern ((pred_tree$ ?v0 (leaf$ ?v1 ?v2))))))
(assert (= (size$b zero$a) zero$))
(assert (forall ((?v0 Nat$)) (= (fun_app$c (less_eq$ (of_nat$ ?v0)) zero$) (= ?v0 zero$)) ))
(assert (forall ((?v0 Nat$) (?v1 Nat$)) (= (= (suc$ ?v0) (suc$ ?v1)) (= ?v0 ?v1)) ))
(assert (forall ((?v0 Nat$) (?v1 Nat$)) (= (= (suc$ ?v0) (suc$ ?v1)) (= ?v0 ?v1)) ))
(assert (forall ((?v0 Nat$) (?v1 Nat$)) (= (= (of_nat$ ?v0) (of_nat$ ?v1)) (= ?v0 ?v1)) ))
(assert (forall ((?v0 Nat$)) (= (not (= ?v0 zero$)) (fun_app$c (less$ zero$) ?v0)) ))
(assert (forall ((?v0 Nat$)) (= (not (fun_app$c (less$ zero$) ?v0)) (= ?v0 zero$)) ))
(assert (forall ((?v0 Nat$)) (! (= (fun_app$c (less$ ?v0) zero$) false) :pattern ((less$ ?v0)))))
(assert (forall ((?v0 Nat$) (?v1 Nat$)) (! (= (fun_app$c (less$ (suc$ ?v0)) (suc$ ?v1)) (fun_app$c (less$ ?v0) ?v1)) :pattern ((fun_app$c (less$ (suc$ ?v0)) (suc$ ?v1))))))
(assert (forall ((?v0 Nat$) (?v1 Nat$)) (=> (fun_app$c (less$ ?v0) ?v1) (fun_app$c (less$ (suc$ ?v0)) (suc$ ?v1))) ))
(assert (forall ((?v0 Nat$)) (fun_app$c (less$ ?v0) (suc$ ?v0)) ))
(assert (forall ((?v0 Nat$) (?v1 Nat$)) (! (= (fun_app$c (less_eq$ (suc$ ?v0)) (suc$ ?v1)) (fun_app$c (less_eq$ ?v0) ?v1)) :pattern ((fun_app$c (less_eq$ (suc$ ?v0)) (suc$ ?v1))))))
(assert (forall ((?v0 Nat$)) (= (= (of_nat$ ?v0) zero$) (= ?v0 zero$)) ))
(assert (forall ((?v0 Nat$)) (= (= zero$ (of_nat$ ?v0)) (= zero$ ?v0)) ))
(assert (= (of_nat$ zero$) zero$))
(assert (= (of_nat$a zero$) zero$a))
(assert (forall ((?v0 Nat$) (?v1 Nat$)) (= (fun_app$c (less$ (of_nat$ ?v0)) (of_nat$ ?v1)) (fun_app$c (less$ ?v0) ?v1)) ))
(assert (forall ((?v0 Nat$) (?v1 Nat$)) (= (fun_app$c (less_eq$ (of_nat$ ?v0)) (of_nat$ ?v1)) (fun_app$c (less_eq$ ?v0) ?v1)) ))
(assert (forall ((?v0 Nat$)) (fun_app$c (less$ zero$) (suc$ ?v0)) ))
(assert (forall ((?v0 Nat$)) (! (= (fun_app$c (less$ ?v0) (suc$ zero$)) (= ?v0 zero$)) :pattern ((less$ ?v0)))))
(assert (forall ((?v0 Nat$)) (= (fun_app$c (less$ zero$) (of_nat$ ?v0)) (fun_app$c (less$ zero$) ?v0)) ))
(assert (forall ((?v0 Nat$) (?v1 Nat$)) (! (= (fun_app$c (less$ ?v0) (suc$ ?v1)) (or (fun_app$c (less$ ?v0) ?v1) (= ?v0 ?v1))) :pattern ((fun_app$c (less$ ?v0) (suc$ ?v1))))))
(assert (forall ((?v0 Nat$) (?v1 Nat$)) (= (fun_app$c (less$ (suc$ ?v0)) ?v1) (exists ((?v2 Nat$)) (and (= ?v1 (suc$ ?v2)) (fun_app$c (less$ ?v0) ?v2)) )) ))
(assert (forall ((?v0 Nat$) (?v1 Nat$)) (= (not (= ?v0 ?v1)) (or (fun_app$c (less$ ?v0) ?v1) (fun_app$c (less$ ?v1) ?v0))) ))
(assert (forall ((?v0 Nat$) (?v1 Nat$)) (= (not (fun_app$c (less$ ?v0) ?v1)) (fun_app$c (less$ ?v1) (suc$ ?v0))) ))
(assert (forall ((?v0 Nat$) (?v1 Nat$) (?v2 Nat_nat_bool_fun_fun$)) (=> (and (=> (fun_app$c (less$ ?v0) ?v1) (fun_app$c (fun_app$d ?v2 ?v1) ?v0)) (and (=> (= ?v0 ?v1) (fun_app$c (fun_app$d ?v2 ?v1) ?v0)) (=> (fun_app$c (less$ ?v1) ?v0) (fun_app$c (fun_app$d ?v2 ?v1) ?v0)))) (fun_app$c (fun_app$d ?v2 ?v1) ?v0)) ))
(assert (forall ((?v0 Nat_nat_fun$) (?v1 Nat$) (?v2 Nat$)) (=> (and (forall ((?v3 Nat$)) (fun_app$c (less$ (fun_app$e ?v0 ?v3)) (fun_app$e ?v0 (suc$ ?v3))) ) (fun_app$c (less$ ?v1) ?v2)) (fun_app$c (less$ (fun_app$e ?v0 ?v1)) (fun_app$e ?v0 ?v2))) ))
(assert (forall ((?v0 Nat_nat_fun$) (?v1 Nat$) (?v2 Nat$)) (=> (forall ((?v3 Nat$)) (fun_app$c (less$ (fun_app$e ?v0 ?v3)) (fun_app$e ?v0 (suc$ ?v3))) ) (= (fun_app$c (less$ (fun_app$e ?v0 ?v1)) (fun_app$e ?v0 ?v2)) (fun_app$c (less$ ?v1) ?v2))) ))
(assert (forall ((?v0 Nat_bool_fun$) (?v1 Nat$)) (=> (forall ((?v2 Nat$)) (=> (not (fun_app$c ?v0 ?v2)) (exists ((?v3 Nat$)) (and (fun_app$c (less$ ?v3) ?v2) (not (fun_app$c ?v0 ?v3))) )) ) (fun_app$c ?v0 ?v1)) ))
(assert (forall ((?v0 Nat_bool_fun$) (?v1 Nat$)) (=> (forall ((?v2 Nat$)) (=> (forall ((?v3 Nat$)) (=> (fun_app$c (less$ ?v3) ?v2) (fun_app$c ?v0 ?v3)) ) (fun_app$c ?v0 ?v2)) ) (fun_app$c ?v0 ?v1)) ))
(assert (forall ((?v0 Nat$) (?v1 Nat$)) (=> (= (suc$ ?v0) (suc$ ?v1)) (= ?v0 ?v1)) ))
(assert (forall ((?v0 Nat$) (?v1 Nat$)) (=> (fun_app$c (less$ (suc$ ?v0)) (suc$ ?v1)) (fun_app$c (less$ ?v0) ?v1)) ))
(assert (forall ((?v0 Nat$) (?v1 Nat$)) (=> (and (fun_app$c (less$ (suc$ ?v0)) ?v1) (forall ((?v2 Nat$)) (=> (and (fun_app$c (less$ ?v0) ?v2) (= ?v1 (suc$ ?v2))) false) )) false) ))
(assert (forall ((?v0 Nat$) (?v1 Nat$)) (=> (fun_app$c (less$ (suc$ ?v0)) ?v1) (fun_app$c (less$ ?v0) ?v1)) ))
(assert (forall ((?v0 Nat$) (?v1 Nat$)) (=> (fun_app$c (less$ (of_nat$ ?v0)) (of_nat$ ?v1)) (fun_app$c (less$ ?v0) ?v1)) ))
(assert (forall ((?v0 Nat$) (?v1 Nat$)) (=> (and (fun_app$c (less$ ?v0) (suc$ ?v1)) (and (=> (fun_app$c (less$ ?v0) ?v1) false) (=> (= ?v0 ?v1) false))) false) ))
(assert (forall ((?v0 Nat$) (?v1 Nat$)) (=> (and (fun_app$c (less$ ?v0) ?v1) (and (=> (= ?v1 (suc$ ?v0)) false) (forall ((?v2 Nat$)) (=> (and (fun_app$c (less$ ?v0) ?v2) (= ?v1 (suc$ ?v2))) false) ))) false) ))
(assert (forall ((?v0 Nat$) (?v1 Nat$) (?v2 Nat_bool_fun$)) (=> (and (fun_app$c (less$ ?v0) ?v1) (and (forall ((?v3 Nat$)) (=> (= ?v1 (suc$ ?v3)) (fun_app$c ?v2 ?v3)) ) (forall ((?v3 Nat$)) (=> (and (fun_app$c (less$ ?v3) ?v1) (fun_app$c ?v2 (suc$ ?v3))) (fun_app$c ?v2 ?v3)) ))) (fun_app$c ?v2 ?v0)) ))
(assert (forall ((?v0 Nat$) (?v1 Nat$) (?v2 Nat_nat_bool_fun_fun$)) (=> (and (fun_app$c (less$ ?v0) ?v1) (and (forall ((?v3 Nat$)) (fun_app$c (fun_app$d ?v2 ?v3) (suc$ ?v3)) ) (forall ((?v3 Nat$) (?v4 Nat$) (?v5 Nat$)) (=> (and (fun_app$c (less$ ?v3) ?v4) (and (fun_app$c (less$ ?v4) ?v5) (and (fun_app$c (fun_app$d ?v2 ?v3) ?v4) (fun_app$c (fun_app$d ?v2 ?v4) ?v5)))) (fun_app$c (fun_app$d ?v2 ?v3) ?v5)) ))) (fun_app$c (fun_app$d ?v2 ?v0) ?v1)) ))
(assert (forall ((?v0 Nat$) (?v1 Nat$) (?v2 Nat$)) (=> (and (fun_app$c (less$ ?v0) ?v1) (fun_app$c (less$ ?v1) ?v2)) (fun_app$c (less$ (suc$ ?v0)) ?v2)) ))
(assert (forall ((?v0 Nat$) (?v1 Nat$)) (=> (and (fun_app$c (less$ ?v0) ?v1) (not (= (suc$ ?v0) ?v1))) (fun_app$c (less$ (suc$ ?v0)) ?v1)) ))
(assert (forall ((?v0 Nat$) (?v1 Nat$)) (=> (fun_app$c (less$ ?v0) ?v1) (fun_app$c (less$ (of_nat$ ?v0)) (of_nat$ ?v1))) ))
(assert (forall ((?v0 Nat$) (?v1 Nat$)) (=> (fun_app$c (less$ ?v0) ?v1) (fun_app$c (less$ ?v0) (suc$ ?v1))) ))
(assert (forall ((?v0 Nat$) (?v1 Nat$)) (=> (fun_app$c (less$ ?v0) ?v1) (not (= ?v0 ?v1))) ))
(assert (forall ((?v0 Nat$) (?v1 Nat$)) (=> (fun_app$c (less$ ?v0) ?v1) (not (= ?v1 ?v0))) ))
(assert (forall ((?v0 Nat$)) (=> (fun_app$c (less$ ?v0) ?v0) false) ))
(assert (forall ((?v0 Nat$) (?v1 Nat$)) (=> (and (not (= ?v0 ?v1)) (and (=> (fun_app$c (less$ ?v0) ?v1) false) (=> (fun_app$c (less$ ?v1) ?v0) false))) false) ))
(assert (forall ((?v0 Nat$) (?v1 Nat$)) (=> (and (not (fun_app$c (less$ ?v0) ?v1)) (fun_app$c (less$ ?v0) (suc$ ?v1))) (= ?v1 ?v0)) ))
(assert (forall ((?v0 Nat$) (?v1 Nat$)) (! (=> (not (fun_app$c (less$ ?v0) ?v1)) (= (fun_app$c (less$ ?v0) (suc$ ?v1)) (= ?v0 ?v1))) :pattern ((fun_app$c (less$ ?v0) (suc$ ?v1))))))
(assert (forall ((?v0 Nat$)) (not (= ?v0 (suc$ ?v0))) ))
(assert (forall ((?v0 Nat$)) (not (= (of_nat$ (suc$ ?v0)) zero$)) ))
(assert (forall ((?v0 Nat$)) (not (fun_app$c (less$ (of_nat$ ?v0)) zero$)) ))
(assert (forall ((?v0 Nat$)) (not (fun_app$c (less$ ?v0) ?v0)) ))
(assert (forall ((?v0 Nat$)) (not (fun_app$c (less$ ?v0) ?v0)) ))
(assert (forall ((?v0 Nat$)) (not (fun_app$c (less$ ?v0) ?v0)) ))
(assert (forall ((?v0 Nat$)) (exists ((?v1 Nat$)) (fun_app$c (less$ ?v0) ?v1) ) ))
(assert (forall ((?v0 Nat$) (?v1 Nat$)) (or (fun_app$c (less$ ?v0) ?v1) (or (= ?v0 ?v1) (fun_app$c (less$ ?v1) ?v0))) ))
(assert (forall ((?v0 Nat$) (?v1 Nat$)) (=> (not (fun_app$c (less$ ?v0) ?v1)) (= (not (fun_app$c (less$ ?v1) ?v0)) (= ?v1 ?v0))) ))
(assert (forall ((?v0 Nat$) (?v1 Nat$)) (=> (and (not (= ?v0 ?v1)) (and (=> (fun_app$c (less$ ?v0) ?v1) false) (=> (fun_app$c (less$ ?v1) ?v0) false))) false) ))
(assert (forall ((?v0 Nat$) (?v1 Nat$)) (=> (fun_app$c (less$ ?v0) ?v1) (not (fun_app$c (less$ ?v1) ?v0))) ))
(assert (forall ((?v0 Nat$) (?v1 Nat$)) (=> (fun_app$c (less$ ?v0) ?v1) (not (= ?v0 ?v1))) ))
(assert (forall ((?v0 Nat$) (?v1 Nat$)) (=> (fun_app$c (less$ ?v0) ?v1) (not (= ?v0 ?v1))) ))
(assert (forall ((?v0 Nat$) (?v1 Nat$)) (=> (fun_app$c (less$ ?v0) ?v1) (not (= ?v1 ?v0))) ))
(assert (forall ((?v0 Nat$) (?v1 Nat$)) (=> (fun_app$c (less$ ?v0) ?v1) (= (not (fun_app$c (less$ ?v1) ?v0)) true)) ))
(assert (forall ((?v0 Nat$) (?v1 Nat$) (?v2 Bool)) (=> (fun_app$c (less$ ?v0) ?v1) (= (=> (fun_app$c (less$ ?v1) ?v0) ?v2) true)) ))
(assert (forall ((?v0 Nat$) (?v1 Nat$)) (=> (fun_app$c (less$ ?v0) ?v1) (= (= ?v0 ?v1) false)) ))
(assert (forall ((?v0 Nat$) (?v1 Nat$)) (=> (fun_app$c (less$ ?v0) ?v1) (= (= ?v1 ?v0) false)) ))
(assert (forall ((?v0 Nat$) (?v1 Nat$)) (=> (and (fun_app$c (less$ ?v0) ?v1) (fun_app$c (less$ ?v1) ?v0)) false) ))
(assert (forall ((?v0 Nat$) (?v1 Nat$)) (=> (and (fun_app$c (less$ ?v0) ?v1) (fun_app$c (less$ ?v1) ?v0)) false) ))
(assert (forall ((?v0 Nat$) (?v1 Nat$)) (=> (and (fun_app$c (less$ ?v0) ?v1) (fun_app$c (less$ ?v1) ?v0)) false) ))
(assert (forall ((?v0 Nat$) (?v1 Nat$) (?v2 Nat$)) (=> (and (fun_app$c (less$ ?v0) ?v1) (fun_app$c (less$ ?v1) ?v2)) (fun_app$c (less$ ?v0) ?v2)) ))
(assert (forall ((?v0 Nat$) (?v1 Nat$) (?v2 Nat$)) (=> (and (fun_app$c (less$ ?v0) ?v1) (fun_app$c (less$ ?v1) ?v2)) (fun_app$c (less$ ?v0) ?v2)) ))
(assert (forall ((?v0 Nat$) (?v1 Nat$) (?v2 Nat$)) (=> (and (fun_app$c (less$ ?v0) ?v1) (fun_app$c (less$ ?v2) ?v0)) (fun_app$c (less$ ?v2) ?v1)) ))
(assert (forall ((?v0 Nat$) (?v1 Nat_nat_fun$) (?v2 Nat$) (?v3 Nat$)) (=> (and (fun_app$c (less$ ?v0) (fun_app$e ?v1 ?v2)) (and (fun_app$c (less$ ?v2) ?v3) (forall ((?v4 Nat$) (?v5 Nat$)) (=> (fun_app$c (less$ ?v4) ?v5) (fun_app$c (less$ (fun_app$e ?v1 ?v4)) (fun_app$e ?v1 ?v5))) ))) (fun_app$c (less$ ?v0) (fun_app$e ?v1 ?v3))) ))
(assert (forall ((?v0 Nat$) (?v1 Nat$) (?v2 Nat_nat_fun$) (?v3 Nat$)) (=> (and (fun_app$c (less$ ?v0) ?v1) (and (fun_app$c (less$ (fun_app$e ?v2 ?v1)) ?v3) (forall ((?v4 Nat$) (?v5 Nat$)) (=> (fun_app$c (less$ ?v4) ?v5) (fun_app$c (less$ (fun_app$e ?v2 ?v4)) (fun_app$e ?v2 ?v5))) ))) (fun_app$c (less$ (fun_app$e ?v2 ?v0)) ?v3)) ))
(assert (forall ((?v0 Nat$) (?v1 Nat$) (?v2 Nat$)) (=> (and (fun_app$c (less$ ?v0) ?v1) (= ?v1 ?v2)) (fun_app$c (less$ ?v0) ?v2)) ))
(assert (forall ((?v0 Nat$) (?v1 Nat$) (?v2 Nat_nat_fun$) (?v3 Nat$)) (=> (and (fun_app$c (less$ ?v0) ?v1) (and (= (fun_app$e ?v2 ?v1) ?v3) (forall ((?v4 Nat$) (?v5 Nat$)) (=> (fun_app$c (less$ ?v4) ?v5) (fun_app$c (less$ (fun_app$e ?v2 ?v4)) (fun_app$e ?v2 ?v5))) ))) (fun_app$c (less$ (fun_app$e ?v2 ?v0)) ?v3)) ))
(assert (forall ((?v0 Nat$) (?v1 Nat$)) (=> (and (fun_app$c (less$ ?v0) ?v1) (=> (not false) (fun_app$c (less$ ?v1) ?v0))) false) ))
(assert (forall ((?v0 Nat$) (?v1 Nat$) (?v2 Nat$)) (=> (and (= ?v0 ?v1) (fun_app$c (less$ ?v1) ?v2)) (fun_app$c (less$ ?v0) ?v2)) ))
(assert (forall ((?v0 Nat$) (?v1 Nat_nat_fun$) (?v2 Nat$) (?v3 Nat$)) (=> (and (= ?v0 (fun_app$e ?v1 ?v2)) (and (fun_app$c (less$ ?v2) ?v3) (forall ((?v4 Nat$) (?v5 Nat$)) (=> (fun_app$c (less$ ?v4) ?v5) (fun_app$c (less$ (fun_app$e ?v1 ?v4)) (fun_app$e ?v1 ?v5))) ))) (fun_app$c (less$ ?v0) (fun_app$e ?v1 ?v3))) ))
(assert (forall ((?v0 Nat_bool_fun$) (?v1 Nat$)) (=> (forall ((?v2 Nat$)) (=> (forall ((?v3 Nat$)) (=> (fun_app$c (less$ ?v3) ?v2) (fun_app$c ?v0 ?v3)) ) (fun_app$c ?v0 ?v2)) ) (fun_app$c ?v0 ?v1)) ))
(assert (forall ((?v0 Nat$) (?v1 Nat$)) (=> (and (=> (fun_app$c (less$ ?v0) ?v1) false) (and (=> (= ?v0 ?v1) false) (=> (fun_app$c (less$ ?v1) ?v0) false))) false) ))
(assert (forall ((?v0 Nat$) (?v1 Nat$)) (= (not (fun_app$c (less$ ?v0) ?v1)) (or (fun_app$c (less$ ?v1) ?v0) (= ?v0 ?v1))) ))
(assert (forall ((?v0 Nat$) (?v1 Nat$)) (= (not (= ?v0 ?v1)) (or (fun_app$c (less$ ?v0) ?v1) (fun_app$c (less$ ?v1) ?v0))) ))
(assert (forall ((?v0 Nat$)) (=> (fun_app$c (less$ zero$) ?v0) (exists ((?v1 Nat$)) (= ?v0 (suc$ ?v1)) )) ))
(assert (forall ((?v0 Nat$)) (= (fun_app$c (less$ zero$) ?v0) (exists ((?v1 Nat$)) (= ?v0 (suc$ ?v1)) )) ))
(assert (forall ((?v0 Nat$) (?v1 Nat$)) (= (fun_app$c (less$ ?v0) (suc$ ?v1)) (or (= ?v0 zero$) (exists ((?v2 Nat$)) (and (= ?v0 (suc$ ?v2)) (fun_app$c (less$ ?v2) ?v1)) ))) ))
(assert (forall ((?v0 Nat$) (?v1 Nat$)) (=> (fun_app$c (less_eq$ ?v0) ?v1) (fun_app$c (less$ ?v0) (suc$ ?v1))) ))
(assert (forall ((?v0 Nat$) (?v1 Nat$)) (! (=> (fun_app$c (less_eq$ ?v0) ?v1) (= (fun_app$c (less$ ?v1) (suc$ ?v0)) (= ?v1 ?v0))) :pattern ((fun_app$c (less$ ?v1) (suc$ ?v0))))))
(assert (forall ((?v0 Nat$) (?v1 Nat$) (?v2 Nat_bool_fun$)) (=> (and (fun_app$c (less_eq$ ?v0) ?v1) (and (fun_app$c ?v2 ?v0) (forall ((?v3 Nat$)) (=> (and (fun_app$c (less_eq$ ?v0) ?v3) (and (fun_app$c (less$ ?v3) ?v1) (fun_app$c ?v2 ?v3))) (fun_app$c ?v2 (suc$ ?v3))) ))) (fun_app$c ?v2 ?v1)) ))
(assert (forall ((?v0 Nat$) (?v1 Nat$) (?v2 Nat_bool_fun$)) (=> (and (fun_app$c (less_eq$ ?v0) ?v1) (and (fun_app$c ?v2 ?v1) (forall ((?v3 Nat$)) (=> (and (fun_app$c (less_eq$ ?v0) ?v3) (and (fun_app$c (less$ ?v3) ?v1) (fun_app$c ?v2 (suc$ ?v3)))) (fun_app$c ?v2 ?v3)) ))) (fun_app$c ?v2 ?v0)) ))
(assert (forall ((?v0 Nat$) (?v1 Nat$)) (=> (fun_app$c (less_eq$ (suc$ ?v0)) ?v1) (fun_app$c (less$ ?v0) ?v1)) ))
(assert (forall ((?v0 Nat$) (?v1 Nat$)) (=> (fun_app$c (less$ ?v0) ?v1) (fun_app$c (less_eq$ (suc$ ?v0)) ?v1)) ))
(assert (forall ((?v0 Nat$) (?v1 Nat$)) (! (= (fun_app$c (less$ ?v0) (suc$ ?v1)) (fun_app$c (less_eq$ ?v0) ?v1)) :pattern ((fun_app$c (less$ ?v0) (suc$ ?v1))))))
(assert (forall ((?v0 Nat$) (?v1 Nat$)) (! (= (fun_app$c (less_eq$ (suc$ ?v0)) ?v1) (fun_app$c (less$ ?v0) ?v1)) :pattern ((fun_app$c (less_eq$ (suc$ ?v0)) ?v1)))))
(assert (forall ((?v0 Nat$) (?v1 Nat$)) (! (= (fun_app$c (less$ ?v0) ?v1) (fun_app$c (less_eq$ (suc$ ?v0)) ?v1)) :pattern ((fun_app$c (less$ ?v0) ?v1)))))
(assert (forall ((?v0 Nat$) (?v1 Nat$)) (or (fun_app$c (less_eq$ ?v0) ?v1) (fun_app$c (less$ ?v1) ?v0)) ))
(assert (forall ((?v0 Nat$) (?v1 Nat$)) (=> (not (fun_app$c (less_eq$ ?v0) ?v1)) (fun_app$c (less$ ?v1) ?v0)) ))
(assert (forall ((?v0 Nat$) (?v1 Nat$)) (=> (not (fun_app$c (less$ ?v0) ?v1)) (fun_app$c (less_eq$ ?v1) ?v0)) ))
(assert (forall ((?v0 Nat$) (?v1 Nat$)) (! (=> (not (fun_app$c (less$ ?v0) ?v1)) (= (fun_app$c (less_eq$ ?v0) ?v1) (= ?v0 ?v1))) :pattern ((fun_app$c (less_eq$ ?v0) ?v1)))))
(assert (forall ((?v0 Nat$) (?v1 Nat$)) (=> (and (not (= ?v0 ?v1)) (fun_app$c (less_eq$ ?v0) ?v1)) (fun_app$c (less$ ?v0) ?v1)) ))
(assert (forall ((?v0 Nat$) (?v1 Nat$)) (=> (fun_app$c (less_eq$ ?v0) ?v1) (not (fun_app$c (less$ ?v1) ?v0))) ))
(assert (forall ((?v0 Nat$) (?v1 Nat$)) (=> (fun_app$c (less_eq$ ?v0) ?v1) (or (fun_app$c (less$ ?v0) ?v1) (= ?v0 ?v1))) ))
(assert (forall ((?v0 Nat$) (?v1 Nat$)) (=> (fun_app$c (less_eq$ ?v0) ?v1) (= (not (fun_app$c (less$ ?v0) ?v1)) (= ?v0 ?v1))) ))
(assert (forall ((?v0 Nat$) (?v1 Nat$)) (=> (and (fun_app$c (less_eq$ ?v0) ?v1) (not (= ?v0 ?v1))) (fun_app$c (less$ ?v0) ?v1)) ))
(assert (forall ((?v0 Nat$) (?v1 Nat$) (?v2 Nat$)) (=> (and (fun_app$c (less_eq$ ?v0) ?v1) (fun_app$c (less$ ?v1) ?v2)) (fun_app$c (less$ ?v0) ?v2)) ))
(assert (forall ((?v0 Nat$) (?v1 Nat$) (?v2 Nat$)) (=> (and (fun_app$c (less_eq$ ?v0) ?v1) (fun_app$c (less$ ?v1) ?v2)) (fun_app$c (less$ ?v0) ?v2)) ))
(assert (forall ((?v0 Nat$) (?v1 Nat$) (?v2 Nat$)) (=> (and (fun_app$c (less_eq$ ?v0) ?v1) (fun_app$c (less$ ?v2) ?v0)) (fun_app$c (less$ ?v2) ?v1)) ))
(assert (forall ((?v0 Nat$) (?v1 Nat_nat_fun$) (?v2 Nat$) (?v3 Nat$)) (=> (and (fun_app$c (less_eq$ ?v0) (fun_app$e ?v1 ?v2)) (and (fun_app$c (less$ ?v2) ?v3) (forall ((?v4 Nat$) (?v5 Nat$)) (=> (fun_app$c (less$ ?v4) ?v5) (fun_app$c (less$ (fun_app$e ?v1 ?v4)) (fun_app$e ?v1 ?v5))) ))) (fun_app$c (less$ ?v0) (fun_app$e ?v1 ?v3))) ))
(assert (forall ((?v0 Nat$) (?v1 Nat$) (?v2 Nat_nat_fun$) (?v3 Nat$)) (=> (and (fun_app$c (less_eq$ ?v0) ?v1) (and (fun_app$c (less$ (fun_app$e ?v2 ?v1)) ?v3) (forall ((?v4 Nat$) (?v5 Nat$)) (=> (fun_app$c (less_eq$ ?v4) ?v5) (fun_app$c (less_eq$ (fun_app$e ?v2 ?v4)) (fun_app$e ?v2 ?v5))) ))) (fun_app$c (less$ (fun_app$e ?v2 ?v0)) ?v3)) ))
(assert (forall ((?v0 Nat$) (?v1 Nat$)) (=> (fun_app$c (less$ ?v0) ?v1) (fun_app$c (less_eq$ ?v0) ?v1)) ))
(assert (forall ((?v0 Nat$) (?v1 Nat$)) (=> (fun_app$c (less$ ?v0) ?v1) (fun_app$c (less_eq$ ?v0) ?v1)) ))
(assert (forall ((?v0 Nat$) (?v1 Nat$)) (=> (fun_app$c (less$ ?v0) ?v1) (fun_app$c (less_eq$ ?v0) ?v1)) ))
(assert (forall ((?v0 Nat$) (?v1 Nat$) (?v2 Nat$)) (=> (and (fun_app$c (less$ ?v0) ?v1) (fun_app$c (less_eq$ ?v1) ?v2)) (fun_app$c (less$ ?v0) ?v2)) ))
(assert (forall ((?v0 Nat$) (?v1 Nat$) (?v2 Nat$)) (=> (and (fun_app$c (less$ ?v0) ?v1) (fun_app$c (less_eq$ ?v1) ?v2)) (fun_app$c (less$ ?v0) ?v2)) ))
(assert (forall ((?v0 Nat$) (?v1 Nat$) (?v2 Nat$)) (=> (and (fun_app$c (less$ ?v0) ?v1) (fun_app$c (less_eq$ ?v2) ?v0)) (fun_app$c (less$ ?v2) ?v1)) ))
(assert (forall ((?v0 Nat$) (?v1 Nat_nat_fun$) (?v2 Nat$) (?v3 Nat$)) (=> (and (fun_app$c (less$ ?v0) (fun_app$e ?v1 ?v2)) (and (fun_app$c (less_eq$ ?v2) ?v3) (forall ((?v4 Nat$) (?v5 Nat$)) (=> (fun_app$c (less_eq$ ?v4) ?v5) (fun_app$c (less_eq$ (fun_app$e ?v1 ?v4)) (fun_app$e ?v1 ?v5))) ))) (fun_app$c (less$ ?v0) (fun_app$e ?v1 ?v3))) ))
(assert (forall ((?v0 Nat$) (?v1 Nat$) (?v2 Nat_nat_fun$) (?v3 Nat$)) (=> (and (fun_app$c (less$ ?v0) ?v1) (and (fun_app$c (less_eq$ (fun_app$e ?v2 ?v1)) ?v3) (forall ((?v4 Nat$) (?v5 Nat$)) (=> (fun_app$c (less$ ?v4) ?v5) (fun_app$c (less$ (fun_app$e ?v2 ?v4)) (fun_app$e ?v2 ?v5))) ))) (fun_app$c (less$ (fun_app$e ?v2 ?v0)) ?v3)) ))
(assert (forall ((?v0 Nat$) (?v1 Nat$)) (= (not (fun_app$c (less_eq$ ?v0) ?v1)) (fun_app$c (less$ ?v1) ?v0)) ))
(assert (forall ((?v0 Nat$) (?v1 Nat$)) (= (not (fun_app$c (less$ ?v0) ?v1)) (fun_app$c (less_eq$ ?v1) ?v0)) ))
(assert (forall ((?v0 Nat$) (?v1 Nat$)) (! (= (fun_app$c (less_eq$ ?v0) ?v1) (or (fun_app$c (less$ ?v0) ?v1) (= ?v0 ?v1))) :pattern ((fun_app$c (less_eq$ ?v0) ?v1)))))
(assert (forall ((?v0 Nat$) (?v1 Nat$)) (! (= (fun_app$c (less_eq$ ?v0) ?v1) (or (fun_app$c (less$ ?v0) ?v1) (= ?v0 ?v1))) :pattern ((fun_app$c (less_eq$ ?v0) ?v1)))))
(assert (forall ((?v0 Nat$) (?v1 Nat$)) (! (= (fun_app$c (less_eq$ ?v0) ?v1) (or (fun_app$c (less$ ?v0) ?v1) (= ?v1 ?v0))) :pattern ((fun_app$c (less_eq$ ?v0) ?v1)))))
(assert (forall ((?v0 Nat$) (?v1 Nat$)) (! (= (fun_app$c (less$ ?v0) ?v1) (and (fun_app$c (less_eq$ ?v0) ?v1) (not (fun_app$c (less_eq$ ?v1) ?v0)))) :pattern ((fun_app$c (less$ ?v0) ?v1)))))
(assert (forall ((?v0 Nat$) (?v1 Nat$)) (! (= (fun_app$c (less$ ?v0) ?v1) (and (fun_app$c (less_eq$ ?v0) ?v1) (not (= ?v0 ?v1)))) :pattern ((fun_app$c (less$ ?v0) ?v1)))))
(assert (forall ((?v0 Nat$) (?v1 Nat$)) (! (= (fun_app$c (less$ ?v0) ?v1) (and (fun_app$c (less_eq$ ?v0) ?v1) (not (= ?v0 ?v1)))) :pattern ((fun_app$c (less$ ?v0) ?v1)))))
(assert (forall ((?v0 Nat$) (?v1 Nat$)) (! (= (fun_app$c (less$ ?v0) ?v1) (and (fun_app$c (less_eq$ ?v0) ?v1) (not (= ?v1 ?v0)))) :pattern ((fun_app$c (less$ ?v0) ?v1)))))
(assert (not (fun_app$c (less$ zero$) zero$)))
(assert (forall ((?v0 Nat$)) (=> (and (=> (= ?v0 zero$) false) (forall ((?v1 Nat$)) (=> (= ?v0 (suc$ ?v1)) false) )) false) ))
(assert (forall ((?v0 Nat_nat_bool_fun_fun$) (?v1 Nat$) (?v2 Nat$)) (=> (and (forall ((?v3 Nat$)) (fun_app$c (fun_app$d ?v0 ?v3) zero$) ) (and (forall ((?v3 Nat$)) (fun_app$c (fun_app$d ?v0 zero$) (suc$ ?v3)) ) (forall ((?v3 Nat$) (?v4 Nat$)) (=> (fun_app$c (fun_app$d ?v0 ?v3) ?v4) (fun_app$c (fun_app$d ?v0 (suc$ ?v3)) (suc$ ?v4))) ))) (fun_app$c (fun_app$d ?v0 ?v1) ?v2)) ))
(assert (forall ((?v0 Nat$)) (=> (= (suc$ ?v0) zero$) false) ))
(assert (forall ((?v0 Nat$) (?v1 Nat$)) (=> (= ?v0 (suc$ ?v1)) (not (= ?v0 zero$))) ))
(assert (forall ((?v0 Nat$)) (=> (= zero$ (suc$ ?v0)) false) ))
(assert (forall ((?v0 Nat$)) (=> (not (= ?v0 zero$)) (exists ((?v1 Nat$)) (= ?v0 (suc$ ?v1)) )) ))
(assert (forall ((?v0 Nat_bool_fun$) (?v1 Nat$)) (=> (and (fun_app$c ?v0 ?v1) (forall ((?v2 Nat$)) (=> (fun_app$c ?v0 (suc$ ?v2)) (fun_app$c ?v0 ?v2)) )) (fun_app$c ?v0 zero$)) ))
(assert (forall ((?v0 Nat_bool_fun$) (?v1 Nat$)) (=> (and (fun_app$c ?v0 zero$) (forall ((?v2 Nat$)) (=> (fun_app$c ?v0 ?v2) (fun_app$c ?v0 (suc$ ?v2))) )) (fun_app$c ?v0 ?v1)) ))
(assert (forall ((?v0 Nat$)) (not (= zero$ (suc$ ?v0))) ))
(assert (forall ((?v0 Nat$)) (not (= zero$ (suc$ ?v0))) ))
(assert (forall ((?v0 Nat$)) (not (= (suc$ ?v0) zero$)) ))
(assert (forall ((?v0 Nat$)) (not (= zero$ (suc$ ?v0))) ))
(assert (forall ((?v0 Nat$)) (not (fun_app$c (less_eq$ (suc$ ?v0)) ?v0)) ))
(assert (forall ((?v0 Nat$) (?v1 Nat$)) (=> (fun_app$c (less_eq$ ?v0) ?v1) (fun_app$c (less_eq$ ?v0) (suc$ ?v1))) ))
(assert (forall ((?v0 Nat$) (?v1 Nat$)) (=> (and (fun_app$c (less_eq$ ?v0) (suc$ ?v1)) (and (=> (fun_app$c (less_eq$ ?v0) ?v1) false) (=> (= ?v0 (suc$ ?v1)) false))) false) ))
(assert (forall ((?v0 Nat$) (?v1 Nat$)) (=> (fun_app$c (less_eq$ (suc$ ?v0)) ?v1) (exists ((?v2 Nat$)) (= ?v1 (suc$ ?v2)) )) ))
(assert (forall ((?v0 Nat$) (?v1 Nat$)) (=> (fun_app$c (less_eq$ (suc$ ?v0)) ?v1) (fun_app$c (less_eq$ ?v0) ?v1)) ))
(assert (forall ((?v0 Nat_bool_fun$) (?v1 Nat$)) (=> (forall ((?v2 Nat$)) (=> (forall ((?v3 Nat$)) (=> (fun_app$c (less_eq$ (suc$ ?v3)) ?v2) (fun_app$c ?v0 ?v3)) ) (fun_app$c ?v0 ?v2)) ) (fun_app$c ?v0 ?v1)) ))
(assert (forall ((?v0 Nat$) (?v1 Nat$)) (= (not (fun_app$c (less_eq$ ?v0) ?v1)) (fun_app$c (less_eq$ (suc$ ?v1)) ?v0)) ))
(assert (forall ((?v0 Nat$) (?v1 Nat$)) (! (= (fun_app$c (less_eq$ ?v0) (suc$ ?v1)) (or (fun_app$c (less_eq$ ?v0) ?v1) (= ?v0 (suc$ ?v1)))) :pattern ((fun_app$c (less_eq$ ?v0) (suc$ ?v1))))))
(assert (forall ((?v0 Nat$)) (=> (=> (= ?v0 zero$) false) (fun_app$c (less$ zero$) ?v0)) ))
(assert (forall ((?v0 Nat$) (?v1 Nat$)) (=> (fun_app$c (less$ ?v0) ?v1) (not (= ?v1 zero$))) ))
(assert (forall ((?v0 Nat$)) (=> (fun_app$c (less$ ?v0) zero$) false) ))
(assert (forall ((?v0 Nat_bool_fun$) (?v1 Nat$)) (=> (and (fun_app$c ?v0 zero$) (forall ((?v2 Nat$)) (=> (and (fun_app$c (less$ zero$) ?v2) (not (fun_app$c ?v0 ?v2))) (exists ((?v3 Nat$)) (and (fun_app$c (less$ ?v3) ?v2) (not (fun_app$c ?v0 ?v3))) )) )) (fun_app$c ?v0 ?v1)) ))
(assert (forall ((?v0 Nat$)) (not (fun_app$c (less$ ?v0) zero$)) ))
(assert (forall ((?v0 Nat$) (?v1 Nat$)) (=> (and (fun_app$c (less_eq$ ?v0) ?v1) (not (= ?v0 ?v1))) (fun_app$c (less$ ?v0) ?v1)) ))
(assert (forall ((?v0 Nat$) (?v1 Nat$)) (=> (fun_app$c (less$ ?v0) ?v1) (fun_app$c (less_eq$ ?v0) ?v1)) ))
(assert (forall ((?v0 Nat$) (?v1 Nat$)) (=> (or (fun_app$c (less$ ?v0) ?v1) (= ?v0 ?v1)) (fun_app$c (less_eq$ ?v0) ?v1)) ))
(assert (forall ((?v0 Nat_nat_fun$) (?v1 Nat$) (?v2 Nat$)) (=> (and (forall ((?v3 Nat$) (?v4 Nat$)) (=> (fun_app$c (less$ ?v3) ?v4) (fun_app$c (less$ (fun_app$e ?v0 ?v3)) (fun_app$e ?v0 ?v4))) ) (fun_app$c (less_eq$ ?v1) ?v2)) (fun_app$c (less_eq$ (fun_app$e ?v0 ?v1)) (fun_app$e ?v0 ?v2))) ))
(assert (forall ((?v0 Nat$) (?v1 Nat$)) (! (= (fun_app$c (less_eq$ ?v0) ?v1) (or (fun_app$c (less$ ?v0) ?v1) (= ?v0 ?v1))) :pattern ((fun_app$c (less_eq$ ?v0) ?v1)))))
(assert (forall ((?v0 Nat$) (?v1 Nat$)) (! (= (fun_app$c (less$ ?v0) ?v1) (and (fun_app$c (less_eq$ ?v0) ?v1) (not (= ?v0 ?v1)))) :pattern ((fun_app$c (less$ ?v0) ?v1)))))
(assert (forall ((?v0 Nat$)) (fun_app$c (less_eq$ zero$) (of_nat$ ?v0)) ))
(assert (forall ((?v0 Nat_nat_fun$) (?v1 Nat$) (?v2 Nat$)) (=> (and (forall ((?v3 Nat$)) (fun_app$c (less_eq$ (fun_app$e ?v0 ?v3)) (fun_app$e ?v0 (suc$ ?v3))) ) (fun_app$c (less_eq$ ?v1) ?v2)) (fun_app$c (less_eq$ (fun_app$e ?v0 ?v1)) (fun_app$e ?v0 ?v2))) ))
(assert (forall ((?v0 Nat_nat_fun$) (?v1 Nat$) (?v2 Nat$)) (=> (and (forall ((?v3 Nat$)) (fun_app$c (less_eq$ (fun_app$e ?v0 (suc$ ?v3))) (fun_app$e ?v0 ?v3)) ) (fun_app$c (less_eq$ ?v1) ?v2)) (fun_app$c (less_eq$ (fun_app$e ?v0 ?v2)) (fun_app$e ?v0 ?v1))) ))
(assert (forall ((?v0 Nat_bool_fun$) (?v1 Nat$)) (=> (and (not (fun_app$c ?v0 zero$)) (fun_app$c ?v0 ?v1)) (exists ((?v2 Nat$)) (and (fun_app$c (less_eq$ ?v2) ?v1) (and (forall ((?v3 Nat$)) (=> (fun_app$c (less$ ?v3) ?v2) (not (fun_app$c ?v0 ?v3))) ) (fun_app$c ?v0 ?v2))) )) ))
(assert (forall ((?v0 Nat$)) (fun_app$c (less_eq$ ?v0) ?v0) ))
(assert (forall ((?v0 Nat$) (?v1 Nat$)) (or (fun_app$c (less_eq$ ?v0) ?v1) (fun_app$c (less_eq$ ?v1) ?v0)) ))
(assert (forall ((?v0 Nat$) (?v1 Nat$)) (! (=> (fun_app$c (less_eq$ ?v0) ?v1) (= (fun_app$c (less_eq$ ?v1) ?v0) (= ?v1 ?v0))) :pattern ((fun_app$c (less_eq$ ?v1) ?v0)))))
(assert (forall ((?v0 Nat$) (?v1 Nat$) (?v2 Nat$)) (=> (and (fun_app$c (less_eq$ ?v0) ?v1) (fun_app$c (less_eq$ ?v1) ?v2)) (fun_app$c (less_eq$ ?v0) ?v2)) ))
(assert (forall ((?v0 Nat$) (?v1 Nat$) (?v2 Nat$)) (=> (and (fun_app$c (less_eq$ ?v0) ?v1) (fun_app$c (less_eq$ ?v1) ?v2)) (fun_app$c (less_eq$ ?v0) ?v2)) ))
(assert (forall ((?v0 Nat$) (?v1 Nat$) (?v2 Nat$)) (=> (and (fun_app$c (less_eq$ ?v0) ?v1) (fun_app$c (less_eq$ ?v2) ?v0)) (fun_app$c (less_eq$ ?v2) ?v1)) ))
(assert (forall ((?v0 Nat$) (?v1 Nat$)) (=> (and (fun_app$c (less_eq$ ?v0) ?v1) (fun_app$c (less_eq$ ?v1) ?v0)) (= ?v0 ?v1)) ))
(assert (forall ((?v0 Nat$) (?v1 Nat$)) (=> (and (fun_app$c (less_eq$ ?v0) ?v1) (fun_app$c (less_eq$ ?v1) ?v0)) (= ?v0 ?v1)) ))
(assert (forall ((?v0 Nat$) (?v1 Nat$)) (=> (and (fun_app$c (less_eq$ ?v0) ?v1) (fun_app$c (less_eq$ ?v1) ?v0)) (= ?v1 ?v0)) ))
(assert (forall ((?v0 Nat$) (?v1 Nat_nat_fun$) (?v2 Nat$) (?v3 Nat$)) (=> (and (fun_app$c (less_eq$ ?v0) (fun_app$e ?v1 ?v2)) (and (fun_app$c (less_eq$ ?v2) ?v3) (forall ((?v4 Nat$) (?v5 Nat$)) (=> (fun_app$c (less_eq$ ?v4) ?v5) (fun_app$c (less_eq$ (fun_app$e ?v1 ?v4)) (fun_app$e ?v1 ?v5))) ))) (fun_app$c (less_eq$ ?v0) (fun_app$e ?v1 ?v3))) ))
(assert (forall ((?v0 Nat$) (?v1 Nat$) (?v2 Nat_nat_fun$) (?v3 Nat$)) (=> (and (fun_app$c (less_eq$ ?v0) ?v1) (and (fun_app$c (less_eq$ (fun_app$e ?v2 ?v1)) ?v3) (forall ((?v4 Nat$) (?v5 Nat$)) (=> (fun_app$c (less_eq$ ?v4) ?v5) (fun_app$c (less_eq$ (fun_app$e ?v2 ?v4)) (fun_app$e ?v2 ?v5))) ))) (fun_app$c (less_eq$ (fun_app$e ?v2 ?v0)) ?v3)) ))
(assert (forall ((?v0 Nat$) (?v1 Nat$) (?v2 Nat$)) (=> (and (fun_app$c (less_eq$ ?v0) ?v1) (= ?v1 ?v2)) (fun_app$c (less_eq$ ?v0) ?v2)) ))
(assert (forall ((?v0 Nat$) (?v1 Nat$) (?v2 Nat_nat_fun$) (?v3 Nat$)) (=> (and (fun_app$c (less_eq$ ?v0) ?v1) (and (= (fun_app$e ?v2 ?v1) ?v3) (forall ((?v4 Nat$) (?v5 Nat$)) (=> (fun_app$c (less_eq$ ?v4) ?v5) (fun_app$c (less_eq$ (fun_app$e ?v2 ?v4)) (fun_app$e ?v2 ?v5))) ))) (fun_app$c (less_eq$ (fun_app$e ?v2 ?v0)) ?v3)) ))
(assert (forall ((?v0 Nat$) (?v1 Nat$)) (=> (= ?v0 ?v1) (fun_app$c (less_eq$ ?v0) ?v1)) ))
(assert (forall ((?v0 Nat$) (?v1 Nat$) (?v2 Nat$)) (=> (and (= ?v0 ?v1) (fun_app$c (less_eq$ ?v1) ?v2)) (fun_app$c (less_eq$ ?v0) ?v2)) ))
(assert (forall ((?v0 Nat$) (?v1 Nat_nat_fun$) (?v2 Nat$) (?v3 Nat$)) (=> (and (= ?v0 (fun_app$e ?v1 ?v2)) (and (fun_app$c (less_eq$ ?v2) ?v3) (forall ((?v4 Nat$) (?v5 Nat$)) (=> (fun_app$c (less_eq$ ?v4) ?v5) (fun_app$c (less_eq$ (fun_app$e ?v1 ?v4)) (fun_app$e ?v1 ?v5))) ))) (fun_app$c (less_eq$ ?v0) (fun_app$e ?v1 ?v3))) ))
(assert (forall ((?v0 Nat_nat_bool_fun_fun$) (?v1 Nat$) (?v2 Nat$)) (=> (and (forall ((?v3 Nat$) (?v4 Nat$)) (=> (fun_app$c (less_eq$ ?v3) ?v4) (fun_app$c (fun_app$d ?v0 ?v3) ?v4)) ) (forall ((?v3 Nat$) (?v4 Nat$)) (=> (fun_app$c (fun_app$d ?v0 ?v4) ?v3) (fun_app$c (fun_app$d ?v0 ?v3) ?v4)) )) (fun_app$c (fun_app$d ?v0 ?v1) ?v2)) ))
(assert (forall ((?v0 Nat$) (?v1 Nat$)) (=> (and (=> (fun_app$c (less_eq$ ?v0) ?v1) false) (=> (fun_app$c (less_eq$ ?v1) ?v0) false)) false) ))
(assert (forall ((?v0 Nat$) (?v1 Nat$)) (= (= ?v0 ?v1) (and (fun_app$c (less_eq$ ?v0) ?v1) (fun_app$c (less_eq$ ?v1) ?v0))) ))
(assert (forall ((?v0 A_tree$) (?v1 A_tree$) (?v2 Nat$) (?v3 A$)) (! (=> (or (fun_app$c (less$ zero$) (height$ ?v0)) (fun_app$c (less$ zero$) (height$ ?v1))) (= (sibling$ (innerNode$ ?v2 ?v0 ?v1) ?v3) (ite (member$ ?v3 (alphabet$ ?v0)) (sibling$ ?v0 ?v3) (sibling$ ?v1 ?v3)))) :pattern ((sibling$ (innerNode$ ?v2 ?v0 ?v1) ?v3)))))
(assert (forall ((?v0 A_tree$) (?v1 A$) (?v2 A_tree$) (?v3 Nat$)) (! (=> (and (fun_app$c (less$ zero$) (height$ ?v0)) (member$ ?v1 (alphabet$ ?v2))) (= (sibling$ (innerNode$ ?v3 ?v2 ?v0) ?v1) (sibling$ ?v2 ?v1))) :pattern ((sibling$ (innerNode$ ?v3 ?v2 ?v0) ?v1)))))
(assert (forall ((?v0 A_tree$) (?v1 A$) (?v2 Nat$) (?v3 A_tree$)) (! (=> (and (fun_app$c (less$ zero$) (height$ ?v0)) (member$ ?v1 (alphabet$ ?v0))) (= (sibling$ (innerNode$ ?v2 ?v0 ?v3) ?v1) (sibling$ ?v0 ?v1))) :pattern ((sibling$ (innerNode$ ?v2 ?v0 ?v3) ?v1)))))
(assert (forall ((?v0 A_tree$) (?v1 A$) (?v2 A_tree$) (?v3 Nat$)) (! (=> (and (fun_app$c (less$ zero$) (height$ ?v0)) (not (member$ ?v1 (alphabet$ ?v2)))) (= (sibling$ (innerNode$ ?v3 ?v2 ?v0) ?v1) (sibling$ ?v0 ?v1))) :pattern ((sibling$ (innerNode$ ?v3 ?v2 ?v0) ?v1)))))
(assert (forall ((?v0 A_tree$) (?v1 A$) (?v2 Nat$) (?v3 A_tree$)) (! (=> (and (fun_app$c (less$ zero$) (height$ ?v0)) (not (member$ ?v1 (alphabet$ ?v0)))) (= (sibling$ (innerNode$ ?v2 ?v0 ?v3) ?v1) (sibling$ ?v3 ?v1))) :pattern ((sibling$ (innerNode$ ?v2 ?v0 ?v3) ?v1)))))
(check-sat)
(exit)

